Route 1: 2 6 7 8 46 4 45 5 3 1 100

Route 2: 12 14 17 16 15 10 11 13 9 47

Route 3: 52 22 20 19 18 48 21 23 25 24

Route 4: 31 29 27 26 28 30 32 33 34 80

Route 5: 44 41 38 40 36 35 37 39 43 42

Route 6: 64 51 62 50 49 54

Route 7: 71 61 70 55 53 57 56

Route 8: 69 73 60 59 58 68

Route 9: 72 65 66 67 95 63 91

Route 10: 82 83 76 77 75 74

Route 11: 92 93 81 79 78

Route 12: 86 85 84 89

Route 13: 88 98 87 99 90

Route 14: 96 94

Route 15: 97

Vehicles: 15

Distance: 1919.62

